\ Model tsp2
\ LP format - for model browsing. Use MPS format to capture full model detail.
Minimize
  z_0_1 + 2 z_0_2 + z_0_3 + 5 z_0_4 + z_0_5 + z_1_0 + z_1_2 + z_1_3
   + 2 z_1_4 + 3 z_1_5 + 2 z_2_0 + z_2_1 + 3 z_2_3 + 3 z_2_4 + 2 z_2_5
   + z_3_0 + z_3_1 + 3 z_3_2 + z_3_4 + 2 z_3_5 + 5 z_4_0 + 2 z_4_1
   + 3 z_4_2 + z_4_3 + 3 z_4_5 + z_5_0 + 3 z_5_1 + 2 z_5_2 + 2 z_5_3
   + 3 z_5_4
Subject To
 sai_0: z_0_1 + z_0_2 + z_0_3 + z_0_4 + z_0_5 = 1
 entra_0: z_1_0 + z_2_0 + z_3_0 + z_4_0 + z_5_0 = 1
 sai_1: z_1_0 + z_1_2 + z_1_3 + z_1_4 + z_1_5 = 1
 entra_1: z_0_1 + z_2_1 + z_3_1 + z_4_1 + z_5_1 = 1
 sai_2: z_2_0 + z_2_1 + z_2_3 + z_2_4 + z_2_5 = 1
 entra_2: z_0_2 + z_1_2 + z_3_2 + z_4_2 + z_5_2 = 1
 sai_3: z_3_0 + z_3_1 + z_3_2 + z_3_4 + z_3_5 = 1
 entra_3: z_0_3 + z_1_3 + z_2_3 + z_4_3 + z_5_3 = 1
 sai_4: z_4_0 + z_4_1 + z_4_2 + z_4_3 + z_4_5 = 1
 entra_4: z_0_4 + z_1_4 + z_2_4 + z_3_4 + z_5_4 = 1
 sai_5: z_5_0 + z_5_1 + z_5_2 + z_5_3 + z_5_4 = 1
 entra_5: z_0_5 + z_1_5 + z_2_5 + z_3_5 + z_4_5 = 1
 mtz_0_1: 6 z_0_1 + 3 z_1_0 + u_0 - u_1 <= 5
 mtz_0_2: 6 z_0_2 + 3 z_2_0 + u_0 - u_2 <= 5
 mtz_0_3: 6 z_0_3 + 3 z_3_0 + u_0 - u_3 <= 5
 mtz_0_4: 6 z_0_4 + 3 z_4_0 + u_0 - u_4 <= 5
 mtz_0_5: 6 z_0_5 + 3 z_5_0 + u_0 - u_5 <= 5
 mtz_1_2: 5 z_1_2 + 3 z_2_1 + u_1 - u_2 <= 4
 mtz_1_3: 5 z_1_3 + 3 z_3_1 + u_1 - u_3 <= 4
 mtz_1_4: 5 z_1_4 + 3 z_4_1 + u_1 - u_4 <= 4
 mtz_1_5: 5 z_1_5 + 3 z_5_1 + u_1 - u_5 <= 4
 mtz_2_1: 3 z_1_2 + 5 z_2_1 - u_1 + u_2 <= 4
 mtz_2_3: 5 z_2_3 + 3 z_3_2 + u_2 - u_3 <= 4
 mtz_2_4: 5 z_2_4 + 3 z_4_2 + u_2 - u_4 <= 4
 mtz_2_5: 5 z_2_5 + 3 z_5_2 + u_2 - u_5 <= 4
 mtz_3_1: 3 z_1_3 + 5 z_3_1 - u_1 + u_3 <= 4
 mtz_3_2: 3 z_2_3 + 5 z_3_2 - u_2 + u_3 <= 4
 mtz_3_4: 5 z_3_4 + 3 z_4_3 + u_3 - u_4 <= 4
 mtz_3_5: 5 z_3_5 + 3 z_5_3 + u_3 - u_5 <= 4
 mtz_4_1: 3 z_1_4 + 5 z_4_1 - u_1 + u_4 <= 4
 mtz_4_2: 3 z_2_4 + 5 z_4_2 - u_2 + u_4 <= 4
 mtz_4_3: 3 z_3_4 + 5 z_4_3 - u_3 + u_4 <= 4
 mtz_4_5: 5 z_4_5 + 3 z_5_4 + u_4 - u_5 <= 4
 mtz_5_1: 3 z_1_5 + 5 z_5_1 - u_1 + u_5 <= 4
 mtz_5_2: 3 z_2_5 + 5 z_5_2 - u_2 + u_5 <= 4
 mtz_5_3: 3 z_3_5 + 5 z_5_3 - u_3 + u_5 <= 4
 mtz_5_4: 3 z_4_5 + 5 z_5_4 - u_4 + u_5 <= 4
Bounds
 u_0 = 0
 1 <= u_1 <= 5
 1 <= u_2 <= 5
 1 <= u_3 <= 5
 1 <= u_4 <= 5
 1 <= u_5 <= 5
Binaries
 z_0_1 z_0_2 z_0_3 z_0_4 z_0_5 z_1_0 z_1_2 z_1_3 z_1_4 z_1_5 z_2_0 z_2_1
 z_2_3 z_2_4 z_2_5 z_3_0 z_3_1 z_3_2 z_3_4 z_3_5 z_4_0 z_4_1 z_4_2 z_4_3
 z_4_5 z_5_0 z_5_1 z_5_2 z_5_3 z_5_4
End
